\ This file has been generated by DOcplex
\ ENCODING=ISO-8859-1
\Problem name: docplex_model1

Minimize
 obj: 1.100000000000 x34 + 0.600000000000 x35 + 0.433333333333 x36
      + 1.100000000000 x38 + 0.600000000000 x39 + 0.433333333333 x40
      + 1.100000000000 x42 + 0.600000000000 x43 + 0.433333333333 x44
      + 1.100000000000 x46 + 0.600000000000 x47 + 0.433333333333 x48
      + 1.100000000000 x50 + 0.600000000000 x51 + 0.433333333333 x52
      + 1.100000000000 x54 + 0.600000000000 x55 + 0.433333333333 x56
Subject To
 c1: x34 + x35 + x36 + x37 = 1
 c2: x38 + x39 + x40 + x41 = 1
 c3: x42 + x43 + x44 + x45 = 1
 c4: x46 + x47 + x48 + x49 = 1
 c5: x50 + x51 + x52 + x53 = 1
 c6: x54 + x55 + x56 + x57 = 1
 c7: x35 + 2 x36 + 3 x37 - x39 - 2 x40 - 3 x41 <= 0
 c8: x39 + 2 x40 + 3 x41 - x43 - 2 x44 - 3 x45 <= 0
 c9: x43 + 2 x44 + 3 x45 - x47 - 2 x48 - 3 x49 <= 0
 c10: x47 + 2 x48 + 3 x49 - x51 - 2 x52 - 3 x53 <= 0
 c11: x51 + 2 x52 + 3 x53 - x55 - 2 x56 - 3 x57 <= 0
 c12: - x1 - x2 - x3 - x4 - x5 - x6 + x19 + x20 + x21 <= 0
 c13: x3 - x4 - x5 - x6 - x21 <= 0
 c14: - x1 - x2 - x3 + x6 - x21 <= 0
 c15: x2 - x4 - x5 - x6 - x20 <= 0
 c16: - x1 - x2 - x3 + x5 - x20 <= 0
 c17: x1 - x4 - x5 - x6 - x19 <= 0
 c18: - x1 - x2 - x3 + x4 - x19 <= 0
 c19: x3 + x6 - x20 <= 0
 c20: x2 + x6 - x19 <= 0
 c21: x3 + x5 - x19 <= 0
 c22: x1 + x6 + x19 + x20 + x21 <= 1
 c23: x3 + x4 + x19 + x20 + x21 <= 1
 c24: x2 + x5 + x19 + x20 + x21 <= 1
 c25: x1 + x5 - x21 <= 1
 c26: x2 + x4 - x21 <= 1
 c27: x1 + x4 - x20 <= 1
 c28: - x1 - x2 - x4 - x5 + x19 + x20 <= 0
 c29: - x1 - x3 - x4 - x5 + x19 + x21 <= 0
 c30: - x1 - x2 - x4 - x6 + x19 + x21 <= 0
 c31: x2 + x3 - x4 - x5 - x20 - x21 <= 0
 c32: - x1 - x2 + x5 + x6 - x20 - x21 <= 0
 c33: - x2 - x3 - x4 - x5 + x20 + x21 <= 0
 c34: - x1 - x2 - x5 - x6 + x20 + x21 <= 0
 c35: x1 + x3 - x4 - x5 - x19 - x21 <= 0
 c36: - x1 - x2 + x4 + x6 - x19 - x21 <= 0
 c37: x1 + x2 - x4 - x5 - x19 - x20 <= 0
 c38: - x1 - x2 + x4 + x5 - x19 - x20 <= 0
 c39: - x1 - x3 - x4 - x6 - x20 - x21 <= 0
 c40: - x1 - x3 - x4 - x6 + x20 + x21 <= 0
 c41: x2 + x3 - x4 - x6 - x19 - x21 <= 0
 c42: - x1 - x3 + x5 + x6 - x19 - x21 <= 0
 c43: - x2 - x3 - x4 - x6 - x19 - x21 <= 0
 c44: - x1 - x3 - x5 - x6 - x19 - x21 <= 0
 c45: x1 + x3 - x4 - x6 - x19 - x20 <= 0
 c46: - x1 - x3 + x4 + x6 - x19 - x20 <= 0
 c47: x1 + x3 - x4 - x6 + x19 + x20 <= 1
 c48: - x1 - x3 + x4 + x6 + x19 + x20 <= 1
 c49: x1 + x2 - x4 - x6 + x19 + x21 <= 1
 c50: - x1 - x3 + x4 + x5 + x19 + x21 <= 1
 c51: x2 + x3 + x5 + x6 - x19 - x20 <= 0
 c52: - x2 - x3 + x5 + x6 + x19 + x20 <= 1
 c53: x2 + x3 - x5 - x6 + x19 + x20 <= 1
 c54: x1 + x3 + x5 + x6 + x19 + x21 <= 1
 c55: x2 + x3 + x4 + x6 + x19 + x21 <= 1
 c56: x1 + x2 + x5 + x6 + x20 + x21 <= 1
 c57: x2 + x3 + x4 + x5 + x20 + x21 <= 1
 c58: - x2 - x3 - x5 - x6 - x19 - x20 <= 0
 c59: x1 + x3 - x5 - x6 + x19 + x21 <= 1
 c60: - x2 - x3 + x4 + x6 + x19 + x21 <= 1
 c61: x1 + x2 - x5 - x6 - x20 - x21 <= 1
 c62: - x2 - x3 + x4 + x5 - x20 - x21 <= 1
 c63: x1 + x3 + x4 + x6 + x20 + x21 <= 1
 c64: x1 + x3 + x4 + x6 - x20 - x21 <= 1
 c65: x1 + x2 + x4 + x6 - x19 - x21 <= 1
 c66: x1 + x3 + x4 + x5 - x19 - x21 <= 1
 c67: x1 + x2 + x4 + x5 + x19 + x20 <= 2
 c68: - x1 - x4 + x19 <= 0
 c69: - x2 - x4 + x20 <= 0
 c70: - x1 - x5 + x20 <= 0
 c71: - x3 - x4 + x21 <= 0
 c72: - x1 - x6 + x21 <= 0
 c73: x1 + x2 + x3 - x4 - x19 - x20 - x21 <= 0
 c74: - x1 + x4 + x5 + x6 - x19 - x20 - x21 <= 0
 c75: - x2 - x5 + x21 <= 0
 c76: - x3 - x5 - x19 - x20 - x21 <= 0
 c77: - x2 - x6 - x19 - x20 - x21 <= 0
 c78: x1 + x2 + x3 - x5 + x19 <= 1
 c79: - x2 + x4 + x5 + x6 + x19 <= 1
 c80: - x3 - x6 + x19 <= 1
 c81: x1 + x2 + x3 - x6 + x20 <= 1
 c82: - x3 + x4 + x5 + x6 + x20 <= 1
 c83: x1 + x2 + x3 + x4 + x5 + x6 + x21 <= 1
 c84: - x7 - x8 - x9 - x19 - x20 - x21 + x22 + x23 + x24 <= 0
 c85: x9 - x19 - x20 - x21 - x24 <= 0
 c86: - x7 - x8 - x9 + x21 - x24 <= 0
 c87: x8 - x19 - x20 - x21 - x23 <= 0
 c88: - x7 - x8 - x9 + x20 - x23 <= 0
 c89: x7 - x19 - x20 - x21 - x22 <= 0
 c90: - x7 - x8 - x9 + x19 - x22 <= 0
 c91: x9 + x21 - x23 <= 0
 c92: x8 + x21 - x22 <= 0
 c93: x9 + x20 - x22 <= 0
 c94: x7 + x21 + x22 + x23 + x24 <= 1
 c95: x9 + x19 + x22 + x23 + x24 <= 1
 c96: x8 + x20 + x22 + x23 + x24 <= 1
 c97: x7 + x20 - x24 <= 1
 c98: x8 + x19 - x24 <= 1
 c99: x7 + x19 - x23 <= 1
 c100: - x7 - x8 - x19 - x20 + x22 + x23 <= 0
 c101: - x7 - x9 - x19 - x20 + x22 + x24 <= 0
 c102: - x7 - x8 - x19 - x21 + x22 + x24 <= 0
 c103: x8 + x9 - x19 - x20 - x23 - x24 <= 0
 c104: - x7 - x8 + x20 + x21 - x23 - x24 <= 0
 c105: - x8 - x9 - x19 - x20 + x23 + x24 <= 0
 c106: - x7 - x8 - x20 - x21 + x23 + x24 <= 0
 c107: x7 + x9 - x19 - x20 - x22 - x24 <= 0
 c108: - x7 - x8 + x19 + x21 - x22 - x24 <= 0
 c109: x7 + x8 - x19 - x20 - x22 - x23 <= 0
 c110: - x7 - x8 + x19 + x20 - x22 - x23 <= 0
 c111: - x7 - x9 - x19 - x21 - x23 - x24 <= 0
 c112: - x7 - x9 - x19 - x21 + x23 + x24 <= 0
 c113: x8 + x9 - x19 - x21 - x22 - x24 <= 0
 c114: - x7 - x9 + x20 + x21 - x22 - x24 <= 0
 c115: - x8 - x9 - x19 - x21 - x22 - x24 <= 0
 c116: - x7 - x9 - x20 - x21 - x22 - x24 <= 0
 c117: x7 + x9 - x19 - x21 - x22 - x23 <= 0
 c118: - x7 - x9 + x19 + x21 - x22 - x23 <= 0
 c119: x7 + x9 - x19 - x21 + x22 + x23 <= 1
 c120: - x7 - x9 + x19 + x21 + x22 + x23 <= 1
 c121: x7 + x8 - x19 - x21 + x22 + x24 <= 1
 c122: - x7 - x9 + x19 + x20 + x22 + x24 <= 1
 c123: x8 + x9 + x20 + x21 - x22 - x23 <= 0
 c124: - x8 - x9 + x20 + x21 + x22 + x23 <= 1
 c125: x8 + x9 - x20 - x21 + x22 + x23 <= 1
 c126: x7 + x9 + x20 + x21 + x22 + x24 <= 1
 c127: x8 + x9 + x19 + x21 + x22 + x24 <= 1
 c128: x7 + x8 + x20 + x21 + x23 + x24 <= 1
 c129: x8 + x9 + x19 + x20 + x23 + x24 <= 1
 c130: - x8 - x9 - x20 - x21 - x22 - x23 <= 0
 c131: x7 + x9 - x20 - x21 + x22 + x24 <= 1
 c132: - x8 - x9 + x19 + x21 + x22 + x24 <= 1
 c133: x7 + x8 - x20 - x21 - x23 - x24 <= 1
 c134: - x8 - x9 + x19 + x20 - x23 - x24 <= 1
 c135: x7 + x9 + x19 + x21 + x23 + x24 <= 1
 c136: x7 + x9 + x19 + x21 - x23 - x24 <= 1
 c137: x7 + x8 + x19 + x21 - x22 - x24 <= 1
 c138: x7 + x9 + x19 + x20 - x22 - x24 <= 1
 c139: x7 + x8 + x19 + x20 + x22 + x23 <= 2
 c140: - x7 - x19 + x22 <= 0
 c141: - x8 - x19 + x23 <= 0
 c142: - x7 - x20 + x23 <= 0
 c143: - x9 - x19 + x24 <= 0
 c144: - x7 - x21 + x24 <= 0
 c145: x7 + x8 + x9 - x19 - x22 - x23 - x24 <= 0
 c146: - x7 + x19 + x20 + x21 - x22 - x23 - x24 <= 0
 c147: - x8 - x20 + x24 <= 0
 c148: - x9 - x20 - x22 - x23 - x24 <= 0
 c149: - x8 - x21 - x22 - x23 - x24 <= 0
 c150: x7 + x8 + x9 - x20 + x22 <= 1
 c151: - x8 + x19 + x20 + x21 + x22 <= 1
 c152: - x9 - x21 + x22 <= 1
 c153: x7 + x8 + x9 - x21 + x23 <= 1
 c154: - x9 + x19 + x20 + x21 + x23 <= 1
 c155: x7 + x8 + x9 + x19 + x20 + x21 + x24 <= 1
 c156: - x10 - x11 - x12 - x22 - x23 - x24 + x25 + x26 + x27 <= 0
 c157: x12 - x22 - x23 - x24 - x27 <= 0
 c158: - x10 - x11 - x12 + x24 - x27 <= 0
 c159: x11 - x22 - x23 - x24 - x26 <= 0
 c160: - x10 - x11 - x12 + x23 - x26 <= 0
 c161: x10 - x22 - x23 - x24 - x25 <= 0
 c162: - x10 - x11 - x12 + x22 - x25 <= 0
 c163: x12 + x24 - x26 <= 0
 c164: x11 + x24 - x25 <= 0
 c165: x12 + x23 - x25 <= 0
 c166: x10 + x24 + x25 + x26 + x27 <= 1
 c167: x12 + x22 + x25 + x26 + x27 <= 1
 c168: x11 + x23 + x25 + x26 + x27 <= 1
 c169: x10 + x23 - x27 <= 1
 c170: x11 + x22 - x27 <= 1
 c171: x10 + x22 - x26 <= 1
 c172: - x10 - x11 - x22 - x23 + x25 + x26 <= 0
 c173: - x10 - x12 - x22 - x23 + x25 + x27 <= 0
 c174: - x10 - x11 - x22 - x24 + x25 + x27 <= 0
 c175: x11 + x12 - x22 - x23 - x26 - x27 <= 0
 c176: - x10 - x11 + x23 + x24 - x26 - x27 <= 0
 c177: - x11 - x12 - x22 - x23 + x26 + x27 <= 0
 c178: - x10 - x11 - x23 - x24 + x26 + x27 <= 0
 c179: x10 + x12 - x22 - x23 - x25 - x27 <= 0
 c180: - x10 - x11 + x22 + x24 - x25 - x27 <= 0
 c181: x10 + x11 - x22 - x23 - x25 - x26 <= 0
 c182: - x10 - x11 + x22 + x23 - x25 - x26 <= 0
 c183: - x10 - x12 - x22 - x24 - x26 - x27 <= 0
 c184: - x10 - x12 - x22 - x24 + x26 + x27 <= 0
 c185: x11 + x12 - x22 - x24 - x25 - x27 <= 0
 c186: - x10 - x12 + x23 + x24 - x25 - x27 <= 0
 c187: - x11 - x12 - x22 - x24 - x25 - x27 <= 0
 c188: - x10 - x12 - x23 - x24 - x25 - x27 <= 0
 c189: x10 + x12 - x22 - x24 - x25 - x26 <= 0
 c190: - x10 - x12 + x22 + x24 - x25 - x26 <= 0
 c191: x10 + x12 - x22 - x24 + x25 + x26 <= 1
 c192: - x10 - x12 + x22 + x24 + x25 + x26 <= 1
 c193: x10 + x11 - x22 - x24 + x25 + x27 <= 1
 c194: - x10 - x12 + x22 + x23 + x25 + x27 <= 1
 c195: x11 + x12 + x23 + x24 - x25 - x26 <= 0
 c196: - x11 - x12 + x23 + x24 + x25 + x26 <= 1
 c197: x11 + x12 - x23 - x24 + x25 + x26 <= 1
 c198: x10 + x12 + x23 + x24 + x25 + x27 <= 1
 c199: x11 + x12 + x22 + x24 + x25 + x27 <= 1
 c200: x10 + x11 + x23 + x24 + x26 + x27 <= 1
 c201: x11 + x12 + x22 + x23 + x26 + x27 <= 1
 c202: - x11 - x12 - x23 - x24 - x25 - x26 <= 0
 c203: x10 + x12 - x23 - x24 + x25 + x27 <= 1
 c204: - x11 - x12 + x22 + x24 + x25 + x27 <= 1
 c205: x10 + x11 - x23 - x24 - x26 - x27 <= 1
 c206: - x11 - x12 + x22 + x23 - x26 - x27 <= 1
 c207: x10 + x12 + x22 + x24 + x26 + x27 <= 1
 c208: x10 + x12 + x22 + x24 - x26 - x27 <= 1
 c209: x10 + x11 + x22 + x24 - x25 - x27 <= 1
 c210: x10 + x12 + x22 + x23 - x25 - x27 <= 1
 c211: x10 + x11 + x22 + x23 + x25 + x26 <= 2
 c212: - x10 - x22 + x25 <= 0
 c213: - x11 - x22 + x26 <= 0
 c214: - x10 - x23 + x26 <= 0
 c215: - x12 - x22 + x27 <= 0
 c216: - x10 - x24 + x27 <= 0
 c217: x10 + x11 + x12 - x22 - x25 - x26 - x27 <= 0
 c218: - x10 + x22 + x23 + x24 - x25 - x26 - x27 <= 0
 c219: - x11 - x23 + x27 <= 0
 c220: - x12 - x23 - x25 - x26 - x27 <= 0
 c221: - x11 - x24 - x25 - x26 - x27 <= 0
 c222: x10 + x11 + x12 - x23 + x25 <= 1
 c223: - x11 + x22 + x23 + x24 + x25 <= 1
 c224: - x12 - x24 + x25 <= 1
 c225: x10 + x11 + x12 - x24 + x26 <= 1
 c226: - x12 + x22 + x23 + x24 + x26 <= 1
 c227: x10 + x11 + x12 + x22 + x23 + x24 + x27 <= 1
 c228: - x13 - x14 - x15 - x25 - x26 - x27 + x28 + x29 + x30 <= 0
 c229: x15 - x25 - x26 - x27 - x30 <= 0
 c230: - x13 - x14 - x15 + x27 - x30 <= 0
 c231: x14 - x25 - x26 - x27 - x29 <= 0
 c232: - x13 - x14 - x15 + x26 - x29 <= 0
 c233: x13 - x25 - x26 - x27 - x28 <= 0
 c234: - x13 - x14 - x15 + x25 - x28 <= 0
 c235: x15 + x27 - x29 <= 0
 c236: x14 + x27 - x28 <= 0
 c237: x15 + x26 - x28 <= 0
 c238: x13 + x27 + x28 + x29 + x30 <= 1
 c239: x15 + x25 + x28 + x29 + x30 <= 1
 c240: x14 + x26 + x28 + x29 + x30 <= 1
 c241: x13 + x26 - x30 <= 1
 c242: x14 + x25 - x30 <= 1
 c243: x13 + x25 - x29 <= 1
 c244: - x13 - x14 - x25 - x26 + x28 + x29 <= 0
 c245: - x13 - x15 - x25 - x26 + x28 + x30 <= 0
 c246: - x13 - x14 - x25 - x27 + x28 + x30 <= 0
 c247: x14 + x15 - x25 - x26 - x29 - x30 <= 0
 c248: - x13 - x14 + x26 + x27 - x29 - x30 <= 0
 c249: - x14 - x15 - x25 - x26 + x29 + x30 <= 0
 c250: - x13 - x14 - x26 - x27 + x29 + x30 <= 0
 c251: x13 + x15 - x25 - x26 - x28 - x30 <= 0
 c252: - x13 - x14 + x25 + x27 - x28 - x30 <= 0
 c253: x13 + x14 - x25 - x26 - x28 - x29 <= 0
 c254: - x13 - x14 + x25 + x26 - x28 - x29 <= 0
 c255: - x13 - x15 - x25 - x27 - x29 - x30 <= 0
 c256: - x13 - x15 - x25 - x27 + x29 + x30 <= 0
 c257: x14 + x15 - x25 - x27 - x28 - x30 <= 0
 c258: - x13 - x15 + x26 + x27 - x28 - x30 <= 0
 c259: - x14 - x15 - x25 - x27 - x28 - x30 <= 0
 c260: - x13 - x15 - x26 - x27 - x28 - x30 <= 0
 c261: x13 + x15 - x25 - x27 - x28 - x29 <= 0
 c262: - x13 - x15 + x25 + x27 - x28 - x29 <= 0
 c263: x13 + x15 - x25 - x27 + x28 + x29 <= 1
 c264: - x13 - x15 + x25 + x27 + x28 + x29 <= 1
 c265: x13 + x14 - x25 - x27 + x28 + x30 <= 1
 c266: - x13 - x15 + x25 + x26 + x28 + x30 <= 1
 c267: x14 + x15 + x26 + x27 - x28 - x29 <= 0
 c268: - x14 - x15 + x26 + x27 + x28 + x29 <= 1
 c269: x14 + x15 - x26 - x27 + x28 + x29 <= 1
 c270: x13 + x15 + x26 + x27 + x28 + x30 <= 1
 c271: x14 + x15 + x25 + x27 + x28 + x30 <= 1
 c272: x13 + x14 + x26 + x27 + x29 + x30 <= 1
 c273: x14 + x15 + x25 + x26 + x29 + x30 <= 1
 c274: - x14 - x15 - x26 - x27 - x28 - x29 <= 0
 c275: x13 + x15 - x26 - x27 + x28 + x30 <= 1
 c276: - x14 - x15 + x25 + x27 + x28 + x30 <= 1
 c277: x13 + x14 - x26 - x27 - x29 - x30 <= 1
 c278: - x14 - x15 + x25 + x26 - x29 - x30 <= 1
 c279: x13 + x15 + x25 + x27 + x29 + x30 <= 1
 c280: x13 + x15 + x25 + x27 - x29 - x30 <= 1
 c281: x13 + x14 + x25 + x27 - x28 - x30 <= 1
 c282: x13 + x15 + x25 + x26 - x28 - x30 <= 1
 c283: x13 + x14 + x25 + x26 + x28 + x29 <= 2
 c284: - x13 - x25 + x28 <= 0
 c285: - x14 - x25 + x29 <= 0
 c286: - x13 - x26 + x29 <= 0
 c287: - x15 - x25 + x30 <= 0
 c288: - x13 - x27 + x30 <= 0
 c289: x13 + x14 + x15 - x25 - x28 - x29 - x30 <= 0
 c290: - x13 + x25 + x26 + x27 - x28 - x29 - x30 <= 0
 c291: - x14 - x26 + x30 <= 0
 c292: - x15 - x26 - x28 - x29 - x30 <= 0
 c293: - x14 - x27 - x28 - x29 - x30 <= 0
 c294: x13 + x14 + x15 - x26 + x28 <= 1
 c295: - x14 + x25 + x26 + x27 + x28 <= 1
 c296: - x15 - x27 + x28 <= 1
 c297: x13 + x14 + x15 - x27 + x29 <= 1
 c298: - x15 + x25 + x26 + x27 + x29 <= 1
 c299: x13 + x14 + x15 + x25 + x26 + x27 + x30 <= 1
 c300: - x16 - x17 - x18 - x28 - x29 - x30 + x31 + x32 + x33 <= 0
 c301: x18 - x28 - x29 - x30 - x33 <= 0
 c302: - x16 - x17 - x18 + x30 - x33 <= 0
 c303: x17 - x28 - x29 - x30 - x32 <= 0
 c304: - x16 - x17 - x18 + x29 - x32 <= 0
 c305: x16 - x28 - x29 - x30 - x31 <= 0
 c306: - x16 - x17 - x18 + x28 - x31 <= 0
 c307: x18 + x30 - x32 <= 0
 c308: x17 + x30 - x31 <= 0
 c309: x18 + x29 - x31 <= 0
 c310: x16 + x30 + x31 + x32 + x33 <= 1
 c311: x18 + x28 + x31 + x32 + x33 <= 1
 c312: x17 + x29 + x31 + x32 + x33 <= 1
 c313: x16 + x29 - x33 <= 1
 c314: x17 + x28 - x33 <= 1
 c315: x16 + x28 - x32 <= 1
 c316: - x16 - x17 - x28 - x29 + x31 + x32 <= 0
 c317: - x16 - x18 - x28 - x29 + x31 + x33 <= 0
 c318: - x16 - x17 - x28 - x30 + x31 + x33 <= 0
 c319: x17 + x18 - x28 - x29 - x32 - x33 <= 0
 c320: - x16 - x17 + x29 + x30 - x32 - x33 <= 0
 c321: - x17 - x18 - x28 - x29 + x32 + x33 <= 0
 c322: - x16 - x17 - x29 - x30 + x32 + x33 <= 0
 c323: x16 + x18 - x28 - x29 - x31 - x33 <= 0
 c324: - x16 - x17 + x28 + x30 - x31 - x33 <= 0
 c325: x16 + x17 - x28 - x29 - x31 - x32 <= 0
 c326: - x16 - x17 + x28 + x29 - x31 - x32 <= 0
 c327: - x16 - x18 - x28 - x30 - x32 - x33 <= 0
 c328: - x16 - x18 - x28 - x30 + x32 + x33 <= 0
 c329: x17 + x18 - x28 - x30 - x31 - x33 <= 0
 c330: - x16 - x18 + x29 + x30 - x31 - x33 <= 0
 c331: - x17 - x18 - x28 - x30 - x31 - x33 <= 0
 c332: - x16 - x18 - x29 - x30 - x31 - x33 <= 0
 c333: x16 + x18 - x28 - x30 - x31 - x32 <= 0
 c334: - x16 - x18 + x28 + x30 - x31 - x32 <= 0
 c335: x16 + x18 - x28 - x30 + x31 + x32 <= 1
 c336: - x16 - x18 + x28 + x30 + x31 + x32 <= 1
 c337: x16 + x17 - x28 - x30 + x31 + x33 <= 1
 c338: - x16 - x18 + x28 + x29 + x31 + x33 <= 1
 c339: x17 + x18 + x29 + x30 - x31 - x32 <= 0
 c340: - x17 - x18 + x29 + x30 + x31 + x32 <= 1
 c341: x17 + x18 - x29 - x30 + x31 + x32 <= 1
 c342: x16 + x18 + x29 + x30 + x31 + x33 <= 1
 c343: x17 + x18 + x28 + x30 + x31 + x33 <= 1
 c344: x16 + x17 + x29 + x30 + x32 + x33 <= 1
 c345: x17 + x18 + x28 + x29 + x32 + x33 <= 1
 c346: - x17 - x18 - x29 - x30 - x31 - x32 <= 0
 c347: x16 + x18 - x29 - x30 + x31 + x33 <= 1
 c348: - x17 - x18 + x28 + x30 + x31 + x33 <= 1
 c349: x16 + x17 - x29 - x30 - x32 - x33 <= 1
 c350: - x17 - x18 + x28 + x29 - x32 - x33 <= 1
 c351: x16 + x18 + x28 + x30 + x32 + x33 <= 1
 c352: x16 + x18 + x28 + x30 - x32 - x33 <= 1
 c353: x16 + x17 + x28 + x30 - x31 - x33 <= 1
 c354: x16 + x18 + x28 + x29 - x31 - x33 <= 1
 c355: x16 + x17 + x28 + x29 + x31 + x32 <= 2
 c356: - x16 - x28 + x31 <= 0
 c357: - x17 - x28 + x32 <= 0
 c358: - x16 - x29 + x32 <= 0
 c359: - x18 - x28 + x33 <= 0
 c360: - x16 - x30 + x33 <= 0
 c361: x16 + x17 + x18 - x28 - x31 - x32 - x33 <= 0
 c362: - x16 + x28 + x29 + x30 - x31 - x32 - x33 <= 0
 c363: - x17 - x29 + x33 <= 0
 c364: - x18 - x29 - x31 - x32 - x33 <= 0
 c365: - x17 - x30 - x31 - x32 - x33 <= 0
 c366: x16 + x17 + x18 - x29 + x31 <= 1
 c367: - x17 + x28 + x29 + x30 + x31 <= 1
 c368: - x18 - x30 + x31 <= 1
 c369: x16 + x17 + x18 - x30 + x32 <= 1
 c370: - x18 + x28 + x29 + x30 + x32 <= 1
 c371: x16 + x17 + x18 + x28 + x29 + x30 + x33 <= 1
 lc1: x34 = 1 -> x1 = 0.250000000000
 lc2: x35 = 1 -> x1 = 0.125000000000
 lc3: x36 = 1 -> x1 = 0.083333333333
 lc4: x37 = 1 -> x1 = 0
 lc5: x38 = 1 -> x4 = 0.250000000000
 lc6: x39 = 1 -> x4 = 0.125000000000
 lc7: x40 = 1 -> x4 = 0.083333333333
 lc8: x41 = 1 -> x4 = 0
 lc9: x42 = 1 -> x7 = 0.250000000000
 lc10: x43 = 1 -> x7 = 0.125000000000
 lc11: x44 = 1 -> x7 = 0.083333333333
 lc12: x45 = 1 -> x7 = 0
 lc13: x46 = 1 -> x10 = 0.250000000000
 lc14: x47 = 1 -> x10 = 0.125000000000
 lc15: x48 = 1 -> x10 = 0.083333333333
 lc16: x49 = 1 -> x10 = 0
 lc17: x50 = 1 -> x13 = 0.250000000000
 lc18: x51 = 1 -> x13 = 0.125000000000
 lc19: x52 = 1 -> x13 = 0.083333333333
 lc20: x53 = 1 -> x13 = 0
 lc21: x54 = 1 -> x16 = 0.250000000000
 lc22: x55 = 1 -> x16 = 0.125000000000
 lc23: x56 = 1 -> x16 = 0.083333333333
 lc24: x57 = 1 -> x16 = 0
 lc25: x34 = 1 -> x2 = 0.250000000000
 lc26: x35 = 1 -> x2 = 0.125000000000
 lc27: x36 = 1 -> x2 = 0.083333333333
 lc28: x37 = 1 -> x2 = 0
 lc29: x38 = 1 -> x5 = 0.250000000000
 lc30: x39 = 1 -> x5 = 0.125000000000
 lc31: x40 = 1 -> x5 = 0.083333333333
 lc32: x41 = 1 -> x5 = 0
 lc33: x42 = 1 -> x8 = 0.250000000000
 lc34: x43 = 1 -> x8 = 0.125000000000
 lc35: x44 = 1 -> x8 = 0.083333333333
 lc36: x45 = 1 -> x8 = 0
 lc37: x46 = 1 -> x11 = 0.250000000000
 lc38: x47 = 1 -> x11 = 0.125000000000
 lc39: x48 = 1 -> x11 = 0.083333333333
 lc40: x49 = 1 -> x11 = 0
 lc41: x50 = 1 -> x14 = 0.250000000000
 lc42: x51 = 1 -> x14 = 0.125000000000
 lc43: x52 = 1 -> x14 = 0.083333333333
 lc44: x53 = 1 -> x14 = 0
 lc45: x54 = 1 -> x17 = 0.250000000000
 lc46: x55 = 1 -> x17 = 0.125000000000
 lc47: x56 = 1 -> x17 = 0.083333333333
 lc48: x57 = 1 -> x17 = 0
 lc49: x34 = 1 -> x3 = -0.250000000000
 lc50: x35 = 1 -> x3 = -0.125000000000
 lc51: x36 = 1 -> x3 = -0.083333333333
 lc52: x37 = 1 -> x3 = 0
 lc53: x38 = 1 -> x6 = -0.250000000000
 lc54: x39 = 1 -> x6 = -0.125000000000
 lc55: x40 = 1 -> x6 = -0.083333333333
 lc56: x41 = 1 -> x6 = 0
 lc57: x42 = 1 -> x9 = -0.250000000000
 lc58: x43 = 1 -> x9 = -0.125000000000
 lc59: x44 = 1 -> x9 = -0.083333333333
 lc60: x45 = 1 -> x9 = 0
 lc61: x46 = 1 -> x12 = -0.250000000000
 lc62: x47 = 1 -> x12 = -0.125000000000
 lc63: x48 = 1 -> x12 = -0.083333333333
 lc64: x49 = 1 -> x12 = 0
 lc65: x50 = 1 -> x15 = -0.250000000000
 lc66: x51 = 1 -> x15 = -0.125000000000
 lc67: x52 = 1 -> x15 = -0.083333333333
 lc68: x53 = 1 -> x15 = 0
 lc69: x54 = 1 -> x18 = -0.250000000000
 lc70: x55 = 1 -> x18 = -0.125000000000
 lc71: x56 = 1 -> x18 = -0.083333333333
 lc72: x57 = 1 -> x18 = 0
 lc73: x58 = 1 -> x31 = 0.384704898914
 lc74: x58 = 0 -> x31 = 0.332430777553
 lc75: x58 = 1 -> x32 = 0.018622466275
 lc76: x58 = 0 -> x32 = 0.264241857257
 lc77: x58 = 1 -> x33 = -0.167569222447
 lc78: x58 = 0 -> x33 = -0.115295101086

Bounds
 -1 <= x1 <= 1
 -1 <= x2 <= 1
 -1 <= x3 <= 1
 -1 <= x4 <= 1
 -1 <= x5 <= 1
 -1 <= x6 <= 1
 -1 <= x7 <= 1
 -1 <= x8 <= 1
 -1 <= x9 <= 1
 -1 <= x10 <= 1
 -1 <= x11 <= 1
 -1 <= x12 <= 1
 -1 <= x13 <= 1
 -1 <= x14 <= 1
 -1 <= x15 <= 1
 -1 <= x16 <= 1
 -1 <= x17 <= 1
 -1 <= x18 <= 1
 -1 <= x19 <= 1
 -1 <= x20 <= 1
 -1 <= x21 <= 1
 -1 <= x22 <= 1
 -1 <= x23 <= 1
 -1 <= x24 <= 1
 -1 <= x25 <= 1
 -1 <= x26 <= 1
 -1 <= x27 <= 1
 -1 <= x28 <= 1
 -1 <= x29 <= 1
 -1 <= x30 <= 1
 -1 <= x31 <= 1
 -1 <= x32 <= 1
 -1 <= x33 <= 1
 0 <= x34 <= 1
 0 <= x35 <= 1
 0 <= x36 <= 1
 0 <= x37 <= 1
 0 <= x38 <= 1
 0 <= x39 <= 1
 0 <= x40 <= 1
 0 <= x41 <= 1
 0 <= x42 <= 1
 0 <= x43 <= 1
 0 <= x44 <= 1
 0 <= x45 <= 1
 0 <= x46 <= 1
 0 <= x47 <= 1
 0 <= x48 <= 1
 0 <= x49 <= 1
 0 <= x50 <= 1
 0 <= x51 <= 1
 0 <= x52 <= 1
 0 <= x53 <= 1
 0 <= x54 <= 1
 0 <= x55 <= 1
 0 <= x56 <= 1
 0 <= x57 <= 1
 0 <= x58 <= 1

Binaries
 x34 x35 x36 x37 x38 x39 x40 x41 x42 x43 x44 x45 x46 x47 x48 x49 x50 x51 x52 x53
 x54 x55 x56 x57 x58
End
